30	100	100	100
4	5	34
29	15	24
42	32	36
18	24	32
32	23	6
8	49	18
27	23	41
44	4	42
21	18	15
29	21	34
30	42	26
11	24	17
12	29	35
37	14	15
22	12	38
6	39	36
46	43	19
6	33	16
9	12	5
10	39	9
45	44	5
42	35	37
10	26	48
17	34	49
29	24	20
44	34	39
6	41	43
22	32	10
30	8	11
44	31	24
